words_train/words_613_SAT.qaiger
aag 112 16 0 1 96
16
30
18
2
6
32
4
12
10
20
14
22
8
28
26
24
225
34 5 3
36 34 7
38 35 6
40 39 37
42 20 18
44 42 22
46 43 23
48 47 45
50 48 40
52 49 41
54 53 51
56 4 2
58 57 35
60 21 19
62 61 43
64 63 59
66 62 58
68 19 2
70 69 67
72 71 65
74 72 54
76 75 51
78 36 9
80 37 8
82 81 79
84 44 24
86 45 25
88 87 85
90 88 82
92 89 83
94 93 91
96 94 77
98 95 76
100 99 97
102 78 11
104 102 13
106 104 15
108 105 14
110 109 107
112 84 26
114 112 28
116 114 30
118 115 31
120 119 117
122 121 110
124 103 12
126 125 105
128 113 29
130 129 115
132 130 126
134 79 10
136 135 103
138 85 27
140 139 113
142 140 136
144 97 91
146 141 137
148 147 143
150 148 145
152 151 143
154 131 127
156 155 133
158 156 153
160 159 133
162 33 16
164 32 17
166 165 163
168 167 108
170 166 109
172 171 169
174 172 116
176 173 117
178 177 175
180 178 160
182 181 123
184 120 111
186 185 178
188 187 160
190 189 183
192 73 55
194 193 75
196 67 65
198 18 3
200 199 197
202 200 69
204 149 144
206 205 151
208 157 152
210 209 159
212 211 207
214 212 202
216 214 195
218 216 191
220 187 182
222 221 218
224 222 101
i0 1 x[7]
i1 2 z[6]
i2 2 z[0]
i3 1 x[0]
i4 1 x[2]
i5 2 z[7]
i6 1 x[1]
i7 1 x[5]
i8 1 x[4]
i9 2 z[1]
i10 1 x[6]
i11 2 z[2]
i12 1 x[3]
i13 2 z[5]
i14 2 z[4]
i15 2 z[3]
o0 bool[0]
c
simplified
  !=
    1
    subtract
      subtract
        << 6
          1
        1 x
      invert
        2 z
