words_train/words_613_SAT.qaiger.qdimacs
p cnf 112 289
a 1 2 3 4 5 6 7 8 0
e 9 10 11 12 13 14 15 16 17 18 19 20 21 22 23 24 25 26 27 28 29 30 31 32 33 34 35 36 37 38 39 40 41 42 43 44 45 46 47 48 49 50 51 52 53 54 55 56 57 58 59 60 61 62 63 64 65 66 67 68 69 70 71 72 73 74 75 76 77 78 79 80 81 82 83 84 85 86 87 88 89 90 91 92 93 94 95 96 97 98 99 100 101 102 103 104 105 106 107 108 109 110 111 112 0
2 1 17 0
-2 -17 0
-1 -17 0
-17 3 18 0
17 -18 0
-3 -18 0
17 -3 19 0
-17 -19 0
3 -19 0
19 18 20 0
-19 -20 0
-18 -20 0
-10 -9 21 0
10 -21 0
9 -21 0
-21 -11 22 0
21 -22 0
11 -22 0
21 11 23 0
-21 -23 0
-11 -23 0
23 22 24 0
-23 -24 0
-22 -24 0
-24 -20 25 0
24 -25 0
20 -25 0
24 20 26 0
-24 -26 0
-20 -26 0
26 25 27 0
-26 -27 0
-25 -27 0
-2 -1 28 0
2 -28 0
1 -28 0
28 17 29 0
-28 -29 0
-17 -29 0
10 9 30 0
-10 -30 0
-9 -30 0
30 21 31 0
-30 -31 0
-21 -31 0
31 29 32 0
-31 -32 0
-29 -32 0
-31 -29 33 0
31 -33 0
29 -33 0
9 -1 34 0
-9 -34 0
1 -34 0
34 33 35 0
-34 -35 0
-33 -35 0
35 32 36 0
-35 -36 0
-32 -36 0
-36 -27 37 0
36 -37 0
27 -37 0
37 25 38 0
-37 -38 0
-25 -38 0
-18 4 39 0
18 -39 0
-4 -39 0
18 -4 40 0
-18 -40 0
4 -40 0
40 39 41 0
-40 -41 0
-39 -41 0
-22 -12 42 0
22 -42 0
12 -42 0
22 12 43 0
-22 -43 0
-12 -43 0
43 42 44 0
-43 -44 0
-42 -44 0
-44 -41 45 0
44 -45 0
41 -45 0
44 41 46 0
-44 -46 0
-41 -46 0
46 45 47 0
-46 -47 0
-45 -47 0
-47 38 48 0
47 -48 0
-38 -48 0
47 -38 49 0
-47 -49 0
38 -49 0
49 48 50 0
-49 -50 0
-48 -50 0
-39 5 51 0
39 -51 0
-5 -51 0
-51 6 52 0
51 -52 0
-6 -52 0
-52 7 53 0
52 -53 0
-7 -53 0
52 -7 54 0
-52 -54 0
7 -54 0
54 53 55 0
-54 -55 0
-53 -55 0
-42 -13 56 0
42 -56 0
13 -56 0
-56 -14 57 0
56 -57 0
14 -57 0
-57 -15 58 0
57 -58 0
15 -58 0
57 15 59 0
-57 -59 0
-15 -59 0
59 58 60 0
-59 -60 0
-58 -60 0
60 -55 61 0
-60 -61 0
55 -61 0
51 -6 62 0
-51 -62 0
6 -62 0
62 52 63 0
-62 -63 0
-52 -63 0
56 14 64 0
-56 -64 0
-14 -64 0
64 57 65 0
-64 -65 0
-57 -65 0
-65 -63 66 0
65 -66 0
63 -66 0
39 -5 67 0
-39 -67 0
5 -67 0
67 51 68 0
-67 -68 0
-51 -68 0
42 13 69 0
-42 -69 0
-13 -69 0
69 56 70 0
-69 -70 0
-56 -70 0
-70 -68 71 0
70 -71 0
68 -71 0
48 45 72 0
-48 -72 0
-45 -72 0
70 68 73 0
-70 -73 0
-68 -73 0
73 71 74 0
-73 -74 0
-71 -74 0
-74 72 75 0
74 -75 0
-72 -75 0
75 71 76 0
-75 -76 0
-71 -76 0
65 63 77 0
-65 -77 0
-63 -77 0
77 66 78 0
-77 -78 0
-66 -78 0
-78 76 79 0
78 -79 0
-76 -79 0
79 66 80 0
-79 -80 0
-66 -80 0
16 -8 81 0
-16 -81 0
8 -81 0
-16 8 82 0
16 -82 0
-8 -82 0
82 81 83 0
-82 -83 0
-81 -83 0
83 -54 84 0
-83 -84 0
54 -84 0
-83 54 85 0
83 -85 0
-54 -85 0
85 84 86 0
-85 -86 0
-84 -86 0
-86 -58 87 0
86 -87 0
58 -87 0
86 58 88 0
-86 -88 0
-58 -88 0
88 87 89 0
-88 -89 0
-87 -89 0
-89 -80 90 0
89 -90 0
80 -90 0
90 61 91 0
-90 -91 0
-61 -91 0
-60 55 92 0
60 -92 0
-55 -92 0
92 -89 93 0
-92 -93 0
89 -93 0
93 -80 94 0
-93 -94 0
80 -94 0
94 91 95 0
-94 -95 0
-91 -95 0
36 27 96 0
-36 -96 0
-27 -96 0
96 37 97 0
-96 -97 0
-37 -97 0
33 32 98 0
-33 -98 0
-32 -98 0
-9 1 99 0
9 -99 0
-1 -99 0
99 98 100 0
-99 -100 0
-98 -100 0
-100 34 101 0
100 -101 0
-34 -101 0
74 -72 102 0
-74 -102 0
72 -102 0
102 75 103 0
-102 -103 0
-75 -103 0
78 -76 104 0
-78 -104 0
76 -104 0
104 79 105 0
-104 -105 0
-79 -105 0
105 103 106 0
-105 -106 0
-103 -106 0
-106 -101 107 0
106 -107 0
101 -107 0
-107 97 108 0
107 -108 0
-97 -108 0
-108 95 109 0
108 -109 0
-95 -109 0
93 -91 110 0
-93 -110 0
91 -110 0
110 -109 111 0
-110 -111 0
109 -111 0
-111 50 112 0
111 -112 0
-50 -112 0
-112 0
